c Random generated cnf formula, satisfiable: false
p cnf 10 50
6 -8 -7 0
1 2 4 0
-10 -5 1 0
1 2 3 0
-9 -10 -1 0
-5 7 -1 0
7 6 2 0
7 -10 -2 0
-10 2 6 0
-8 2 -3 0
-2 1 -10 0
5 7 10 0
-5 7 -6 0
8 -10 6 0
-5 -6 -9 0
-7 -8 6 0
-4 -6 -7 0
-2 8 1 0
-7 6 -4 0
-9 6 -8 0
-8 -9 4 0
-4 -8 -5 0
9 7 3 0
-2 9 -4 0
-8 -6 -1 0
-10 2 -1 0
7 3 -9 0
5 6 -10 0
-3 -4 5 0
-2 -10 1 0
-6 -8 10 0
1 10 -5 0
10 9 -4 0
10 -6 2 0
-1 7 -10 0
-7 -1 8 0
-8 -1 3 0
9 -4 -2 0
-9 -5 3 0
-2 -7 -10 0
-3 7 5 0
6 -4 -3 0
10 -6 -9 0
-4 5 2 0
9 8 -4 0
7 -9 6 0
4 8 -1 0
-2 8 3 0
-7 8 -10 0
-1 -7 -8 0
